NAME : wi29
COMMENT : 5 samples from the wi29 dataset.
COMMENT : Just used for testing!
TYPE : TSP
DIMENSION : 5
EDGE_WEIGHT_TYPE : EUC_2D
NODE_COORD_SECTION
1 20833.3333 17100.0000
2 20900.0000 15066.6667
3 21300.0000 13016.6667
4 21600.0000 14150.0000
5 20533.3333 17000.0000
EOF
